length = 28;
width = 10;

mist =   array1d(LENGTH,[ 0 | l in LENGTH ]);
arrow  = array1d(WIDTH, [0 | w in WIDTH ]); 
price = [ 0, 0 ];
budget = 40;
stage = A;

ntypes = 2;
number = [12,6];
config = [{1},{2}];

nshapes = 2;
shape = [{1},{2}];

nroff = 2;
rectoff = [| 0,0,8,2
           | 0,0,2,6
          |]; 
